sat
(
  (define-fun StorageProv1 () Int
    2000)
  (define-fun PriceProv6 () Int
    0)
  (define-fun C4_VM2 () Int
    1)
  (define-fun C1_VM3 () Int
    1)
  (define-fun C3_VM5 () Int
    0)
  (define-fun C1_VM2 () Int
    0)
  (define-fun PriceProv2 () Int
    1288)
  (define-fun MemProv5 () Int
    15000)
  (define-fun C5_VM1 () Int
    1)
  (define-fun C4_VM1 () Int
    0)
  (define-fun C2_VM3 () Int
    0)
  (define-fun C2_VM1 () Int
    1)
  (define-fun C4_VM3 () Int
    0)
  (define-fun C3_VM4 () Int
    1)
  (define-fun PriceProv3 () Int
    379)
  (define-fun C5_VM3 () Int
    0)
  (define-fun MemProv4 () Int
    68400)
  (define-fun StorageProv3 () Int
    1000)
  (define-fun C1_VM6 () Int
    0)
  (define-fun StorageProv2 () Int
    2000)
  (define-fun VM2Type () Int
    12)
  (define-fun VM6Type () Int
    0)
  (define-fun C5_VM6 () Int
    0)
  (define-fun C3_VM2 () Int
    0)
  (define-fun ProcProv2 () Int
    8)
  (define-fun C1_VM5 () Int
    0)
  (define-fun C3_VM3 () Int
    0)
  (define-fun VM4Type () Int
    12)
  (define-fun PriceProv4 () Int
    1288)
  (define-fun C3_VM1 () Int
    0)
  (define-fun VM3Type () Int
    15)
  (define-fun C2_VM4 () Int
    0)
  (define-fun C2_VM2 () Int
    0)
  (define-fun StorageProv6 () Int
    999)
  (define-fun MemProv3 () Int
    30500)
  (define-fun C5_VM4 () Int
    1)
  (define-fun PriceProv1 () Int
    402)
  (define-fun ProcProv4 () Int
    8)
  (define-fun C2_VM6 () Int
    0)
  (define-fun C5_VM2 () Int
    0)
  (define-fun StorageProv5 () Int
    2000)
  (define-fun MemProv2 () Int
    68400)
  (define-fun ProcProv5 () Int
    4)
  (define-fun C5_VM5 () Int
    1)
  (define-fun ProcProv3 () Int
    4)
  (define-fun VM1Type () Int
    13)
  (define-fun C4_VM4 () Int
    0)
  (define-fun C4_VM6 () Int
    0)
  (define-fun StorageProv4 () Int
    2000)
  (define-fun MemProv1 () Int
    15000)
  (define-fun ProcProv1 () Int
    4)
  (define-fun C2_VM5 () Int
    1)
  (define-fun VM5Type () Int
    13)
  (define-fun C4_VM5 () Int
    0)
  (define-fun C1_VM4 () Int
    0)
  (define-fun ProcProv6 () Int
    64)
  (define-fun C3_VM6 () Int
    0)
  (define-fun PriceProv5 () Int
    402)
  (define-fun MemProv6 () Int
    116999)
  (define-fun C1_VM1 () Int
    0)
)
(objectives
 ( 17)
 ((+ 0 PriceProv1 PriceProv2 PriceProv3 PriceProv4 PriceProv5 PriceProv6) 3759)
)
(:added-eqs                   36423
 :arith-eq-adapter            8425
 :arith-bound-propagations-lp 362
 :arith-conflicts             10
 :arith-diseq                 25744
 :arith-fixed-eqs             859
 :arith-lower                 24493
 :arith-make-feasible         5682
 :arith-max-columns           125
 :arith-max-rows              20
 :arith-upper                 35964
 :binary-propagations         120418
 :conflicts                   636
 :decisions                   15594
 :del-clause                  6448
 :final-checks                20
 :max-memory                  41.04
 :maxsat-cores                3
 :memory                      41.04
 :minimized-lits              2636
 :mk-bool-var                 17726
 :mk-clause                   7351
 :mk-clause-binary            2873
 :num-allocs                  6039582
 :num-checks                  25
 :pb-conflicts                378
 :pb-predicates               234
 :pb-propagations             1050
 :pb-resolves                 375
 :propagations                154688
 :restarts                    4
 :rlimit-count                1356820
 :solve-eqs-elim-vars         1
 :solve-eqs-steps             10
 :time                        0.08
 :total-time                  0.08)
